20 60 3 5
-1
45 51 56 -1
12 26 38 43 50 54 -1
10 27 35 44 45 -1
7 9 48 49 52 57 -1
7 48 -1
19 30 38 -1
5 6 14 24 30 -1
6 38 -1
17 29 42 54 -1
25 56 58 -1
11 22 26 28 -1
-1
4 25 40 55 -1
25 -1
34 45 52 -1
2 26 30 -1
13 -1
32 36 37 -1
19 44 56 -1
